500
400 400
1 320 949
2 320 241
3 319 148
4 317 310
5 316 687
6 315 997
7 314 353
8 314 816
9 314 374
10 313 475
11 313 663
12 313 74
13 312 959
14 312 217
15 312 775
16 311 3
17 309 54
18 308 338
19 308 145
20 308 62
21 308 418
22 306 431
23 306 162
24 304 893
25 304 130
26 304 315
27 304 828
28 302 447
29 301 374
30 299 843
31 299 542
32 299 137
33 298 605
34 298 392
35 298 847
36 297 326
37 296 12
38 296 853
39 296 777
40 296 630
41 295 472
42 294 793
43 294 704
44 293 683
45 293 284
46 292 197
47 292 278
48 292 898
49 291 952
50 291 730
51 291 582
52 291 967
53 290 0
54 290 426
55 290 404
56 289 682
57 289 624
58 288 544
59 287 688
60 286 548
61 286 560
62 286 300
63 286 789
64 285 451
65 285 370
66 285 844
67 284 322
68 284 548
69 284 698
70 284 516
71 284 331
72 282 325
73 281 131
74 281 526
75 280 992
76 280 708
77 279 473
78 278 571
79 276 969
80 275 531
81 274 685
82 273 218
83 273 963
84 273 779
85 272 493
86 272 186
87 272 113
88 272 987
89 272 727
90 272 433
91 271 219
92 271 705
93 270 643
94 270 903
95 269 233
96 268 847
97 267 439
98 267 110
99 267 98
100 266 677
101 266 447
102 265 666
103 264 622
104 264 52
105 264 760
106 264 91
107 263 106
108 263 986
109 262 940
110 262 586
111 261 324
112 261 256
113 260 987
114 260 350
115 260 465
116 259 889
117 258 594
118 257 221
119 256 742
120 256 958
121 255 959
122 255 988
123 255 154
124 253 797
125 253 466
126 253 288
127 251 257
128 249 162
129 249 307
130 248 769
131 248 653
132 248 157
133 246 836
134 245 551
135 245 358
136 245 130
137 244 600
138 244 625
139 243 836
140 242 833
141 242 797
142 241 459
143 241 952
144 240 479
145 239 595
146 239 493
147 238 715
148 238 182
149 238 371
150 237 731
151 237 28
152 236 81
153 236 607
154 235 833
155 234 63
156 234 996
157 233 737
158 232 127
159 231 487
160 231 202
161 230 414
162 230 862
163 230 62
164 229 292
165 229 948
166 229 226
167 229 741
168 229 26
169 228 444
170 228 258
171 228 134
172 228 162
173 228 600
174 227 269
175 226 731
176 225 106
177 224 344
178 224 674
179 223 688
180 223 450
181 222 925
182 221 909
183 220 128
184 220 704
185 220 583
186 219 665
187 219 705
188 219 57
189 219 276
190 219 915
191 218 819
192 218 82
193 217 722
194 217 703
195 216 546
196 216 651
197 215 186
198 214 659
199 214 962
200 213 694
201 213 233
202 213 87
203 212 428
204 212 829
205 211 61
206 211 691
207 211 556
208 210 920
209 210 53
210 209 292
211 209 653
212 209 181
213 208 365
214 206 293
215 206 961
216 206 238
217 206 884
218 204 819
219 204 266
220 203 247
221 202 63
222 200 543
223 200 121
224 199 48
225 197 401
226 195 64
227 193 34
228 193 508
229 192 427
230 192 809
231 192 328
232 191 329
233 190 65
234 190 216
235 190 543
236 190 22
237 189 762
238 188 388
239 188 629
240 187 53
241 185 940
242 185 271
243 184 74
244 184 839
245 183 872
246 183 385
247 183 925
248 182 738
249 182 689
250 181 620
251 181 136
252 180 930
253 179 223
254 179 179
255 178 575
256 178 30
257 178 220
258 177 523
259 176 142
260 175 254
261 175 112
262 174 350
263 174 947
264 172 797
265 172 203
266 171 688
267 170 663
268 170 192
269 170 953
270 168 221
271 167 724
272 166 301
273 165 493
274 164 639
275 163 240
276 163 415
277 160 970
278 158 321
279 158 475
280 158 94
281 157 762
282 157 938
283 157 340
284 157 881
285 156 192
286 156 382
287 156 519
288 156 723
289 156 338
290 155 891
291 155 265
292 155 369
293 154 656
294 153 389
295 153 79
296 153 743
297 153 652
298 152 363
299 152 101
300 152 149
301 152 314
302 151 737
303 151 736
304 149 380
305 147 633
306 147 718
307 146 66
308 145 138
309 145 299
310 145 388
311 145 784
312 144 839
313 144 35
314 144 950
315 143 780
316 143 73
317 142 614
318 140 379
319 138 202
320 138 393
321 138 565
322 137 102
323 137 675
324 136 570
325 136 838
326 136 274
327 136 587
328 136 642
329 136 705
330 134 39
331 134 324
332 133 134
333 132 399
334 131 786
335 131 861
336 130 714
337 130 609
338 130 583
339 129 275
340 128 200
341 128 921
342 126 280
343 126 66
344 125 878
345 124 618
346 123 402
347 122 488
348 121 295
349 121 388
350 120 571
351 119 760
352 119 409
353 119 300
354 117 737
355 116 338
356 116 578
357 116 675
358 116 431
359 116 589
360 115 303
361 115 29
362 115 410
363 114 713
364 113 24
365 113 952
366 113 189
367 111 872
368 111 148
369 111 38
370 110 410
371 109 407
372 109 505
373 108 691
374 108 612
375 108 98
376 108 587
377 107 850
378 107 556
379 107 28
380 106 332
381 106 382
382 106 749
383 105 994
384 104 103
385 103 87
386 103 629
387 101 427
388 101 51
389 101 960
390 101 716
391 100 337
392 100 471
393 100 668
394 100 517
395 98 720
396 97 83
397 95 754
398 95 118
399 95 796
400 95 967
401 95 793
402 94 945
403 94 531
404 94 544
405 93 129
406 93 99
407 93 434
408 93 951
409 93 533
410 93 819
411 92 28
412 92 952
413 92 62
414 91 383
415 91 124
416 90 44
417 90 890
418 89 681
419 89 216
420 89 907
421 88 870
422 88 968
423 87 171
424 87 52
425 86 366
426 86 106
427 85 383
428 83 232
429 82 103
430 82 731
431 81 626
432 81 59
433 80 723
434 80 91
435 79 889
436 78 607
437 78 299
438 77 964
439 76 149
440 76 119
441 75 184
442 74 29
443 73 141
444 73 257
445 73 98
446 72 2
447 71 840
448 70 656
449 70 590
450 69 481
451 69 31
452 68 228
453 67 79
454 67 156
455 67 632
456 67 221
457 66 713
458 66 950
459 65 871
460 64 939
461 63 104
462 63 475
463 62 120
464 62 58
465 62 970
466 62 14
467 61 906
468 61 10
469 60 6
470 60 745
471 60 382
472 60 109
473 59 805
474 59 395
475 58 936
476 56 70
477 55 979
478 55 906
479 54 395
480 51 194
481 51 841
482 49 848
483 49 768
484 48 759
485 47 857
486 47 425
487 46 986
488 45 645
489 45 126
490 44 533
491 44 647
492 43 422
493 42 571
494 42 207
495 42 552
496 41 331
497 41 907
498 40 833
499 40 135
500 40 617
